p wcnf 167 84 85 
1 -6 38 0 
1 117 11 0 
1 -147 -140 0 
1 -44 -163 0 
1 142 37 0 
1 81 -73 0 
1 105 -26 0 
1 -160 90 0 
1 -126 43 0 
1 15 -40 0 
1 -59 -89 0 
1 11 -81 0 
1 -4 -143 0 
1 165 -67 0 
1 -10 23 0 
1 -116 -62 0 
1 159 15 0 
1 -42 -102 0 
1 -20 128 0 
1 -111 55 0 
1 115 108 0 
1 -56 33 0 
1 50 113 0 
1 -60 -79 0 
1 164 137 0 
1 -25 -156 0 
1 29 102 0 
1 -73 -98 0 
1 24 -103 0 
1 117 -21 0 
1 161 162 0 
1 112 -121 0 
1 -24 149 0 
1 148 57 0 
1 -42 114 0 
1 106 14 0 
1 -54 156 0 
1 -39 -147 0 
1 -61 -22 0 
1 10 161 0 
1 -25 -136 0 
1 126 140 0 
1 147 91 0 
1 -94 -27 0 
1 -6 21 0 
1 -113 -49 0 
1 -161 51 0 
1 58 -127 0 
1 141 22 0 
1 69 123 0 
1 -109 -61 0 
1 -118 -44 0 
1 -44 -150 0 
1 74 123 0 
1 -67 58 0 
1 51 -77 0 
1 136 -97 0 
1 -44 -64 0 
1 132 -96 0 
1 -54 73 0 
1 112 -40 0 
1 -66 13 0 
1 29 -57 0 
1 85 -98 0 
1 91 -46 0 
1 -134 -49 0 
1 -59 -14 0 
1 -23 -47 0 
1 118 -65 0 
1 -62 -80 0 
1 119 53 0 
1 112 41 0 
1 49 58 0 
1 -31 23 0 
1 -114 -136 0 
1 19 -141 0 
1 -16 119 0 
1 9 -94 0 
1 -132 -55 0 
1 -33 112 0 
1 -130 -145 0 
1 128 40 0 
1 -20 61 0 
1 13 9 0 
